(declare-const a Real)
(declare-const b Real)
(declare-const c Real)
(assert (= (+ a b c) 3))
(assert (> a 0))
(assert (> b 0))
(assert (> c 0))
(assert (not (<= (+ (pow (* (+ 144 (pow a 2)) (+ (pow c 4) (* 144 (pow a 2)))) (/ 1 2)) (pow (+ 3872 (* 162 (pow b 6))) (/ 1 2)) (* -72 (pow (+ (pow a 2) (pow b 2) (* a b)) (/ 1 2))) (* -72 (pow (+ (pow a 2) (pow c 2) (* a c)) (/ 1 2))) (* -72 (pow (+ (pow b 2) (pow c 2) (* b c)) (/ 1 2))) (* a (pow (+ (* 577 (pow b 2)) (* 332352 (pow c 2))) (/ 1 2))) (* 24 b c)) 0)))
(check-sat)
(get-model)
(exit)